10
2147483647 47 23 42 35 39 3 99 66 38 
47 2147483647 71 8 63 59 90 40 41 36 
23 71 2147483647 59 26 92 4 83 25 46 
42 8 59 2147483647 80 4 90 78 54 48 
35 63 26 80 2147483647 1 29 62 7 50 
39 59 92 4 1 2147483647 93 29 20 25 
3 90 4 90 29 93 2147483647 95 16 72 
99 40 83 78 62 29 95 2147483647 47 66 
66 41 25 54 7 20 16 47 2147483647 96 
38 36 46 48 50 25 72 66 96 2147483647 
